Route #1: 29 43 1 35 18 20 16
Route #2: 6 25 12 39 17 31
Route #3: 41 14 13 38 9 36 22 2
Route #4: 8 28 7 27 24 33 19
Route #5: 4 34 30 23 40 3
Route #6: 15 32 21 5 37 42 11 10 26
cost 1025.234130859375